TYPE : Vertex Cover
DIMENSION: 37
EDGE_DATA_SECTION:
0 2
0 4
0 18
0 22
0 28
1 6
1 14
1 22
1 26
1 31
1 34
2 9
2 11
2 13
2 15
2 19
2 21
2 22
2 30
2 36
3 6
3 7
3 9
3 14
3 27
3 28
3 33
3 35
3 36
4 18
4 28
4 31
4 34
5 9
5 17
5 22
5 26
6 10
6 19
6 26
6 34
7 8
7 15
7 17
7 18
7 19
7 20
7 22
7 25
7 27
7 28
7 32
8 26
8 28
8 31
8 34
8 36
9 14
9 32
9 34
10 12
10 20
10 24
10 32
10 33
10 34
11 12
11 13
11 22
11 27
11 28
11 30
11 35
12 16
12 24
12 27
12 36
13 14
13 21
13 23
13 25
13 26
13 27
13 34
14 15
14 24
14 27
15 16
15 20
15 27
15 32
16 18
16 20
16 25
16 31
16 32
16 36
17 18
17 34
18 20
18 21
18 25
18 33
18 34
18 35
19 20
19 26
19 28
19 29
19 33
19 36
20 22
20 23
20 28
20 29
20 30
20 33
21 32
21 34
21 36
22 24
22 25
22 27
22 31
23 24
23 30
23 34
25 30
25 33
26 35
27 33
27 34
28 30
28 36
30 33
30 35
31 32
32 36
33 36
35 36
-1
VERTEX_DEGREE:
5.0 6.0 10.0 9.0 5.0 4.0 6.0 12.0 6.0 6.0 7.0 8.0 6.0 9.0 7.0 7.0 8.0 4.0 11.0 9.0 12.0 6.0 11.0 5.0 5.0 7.0 7.0 10.0 10.0 2.0 8.0 6.0 8.0 9.0 12.0 6.0 11.0
VERTEX_COVER:
0 1 2 3 5 7 10 11 13 14 16 18 19 20 24 25 26 27 28 30 31 32 34 36
EOF
